c User generated cnf file
p cnf 12 17
1 -11 8 0 
12 5 -12 0 
-2 5 11 0 
8 6 -7 0 
12 -11 5 0 
3 -11 12 0 
10 9 -4 0 
1 -9 1 0 
4 6 -8 0 
-10 3 12 0 
3 4 -12 0 
4 2 -6 0 
10 3 -3 0 
-7 10 11 0 
-1 10 5 0 
6 7 -2 0 
-8 12 10 0 
